p tdp 50 625
1 3
1 4
1 5
1 7
1 9
1 10
1 11
1 12
1 14
1 16
1 18
1 20
1 21
1 22
1 23
1 24
1 27
1 31
1 34
1 36
1 38
1 39
1 40
1 42
1 47
2 3
2 4
2 5
2 7
2 9
2 10
2 11
2 12
2 14
2 16
2 18
2 20
2 21
2 22
2 23
2 24
2 27
2 31
2 34
2 36
2 38
2 39
2 40
2 42
2 47
3 6
3 8
3 13
3 15
3 17
3 19
3 25
3 26
3 28
3 29
3 30
3 32
3 33
3 35
3 37
3 41
3 43
3 44
3 45
3 46
3 48
3 49
3 50
4 6
4 8
4 13
4 15
4 17
4 19
4 25
4 26
4 28
4 29
4 30
4 32
4 33
4 35
4 37
4 41
4 43
4 44
4 45
4 46
4 48
4 49
4 50
5 6
5 8
5 13
5 15
5 17
5 19
5 25
5 26
5 28
5 29
5 30
5 32
5 33
5 35
5 37
5 41
5 43
5 44
5 45
5 46
5 48
5 49
5 50
6 7
6 9
6 10
6 11
6 12
6 14
6 16
6 18
6 20
6 21
6 22
6 23
6 24
6 27
6 31
6 34
6 36
6 38
6 39
6 40
6 42
6 47
7 8
7 13
7 15
7 17
7 19
7 25
7 26
7 28
7 29
7 30
7 32
7 33
7 35
7 37
7 41
7 43
7 44
7 45
7 46
7 48
7 49
7 50
8 9
8 10
8 11
8 12
8 14
8 16
8 18
8 20
8 21
8 22
8 23
8 24
8 27
8 31
8 34
8 36
8 38
8 39
8 40
8 42
8 47
9 13
9 15
9 17
9 19
9 25
9 26
9 28
9 29
9 30
9 32
9 33
9 35
9 37
9 41
9 43
9 44
9 45
9 46
9 48
9 49
9 50
10 13
10 15
10 17
10 19
10 25
10 26
10 28
10 29
10 30
10 32
10 33
10 35
10 37
10 41
10 43
10 44
10 45
10 46
10 48
10 49
10 50
11 13
11 15
11 17
11 19
11 25
11 26
11 28
11 29
11 30
11 32
11 33
11 35
11 37
11 41
11 43
11 44
11 45
11 46
11 48
11 49
11 50
12 13
12 15
12 17
12 19
12 25
12 26
12 28
12 29
12 30
12 32
12 33
12 35
12 37
12 41
12 43
12 44
12 45
12 46
12 48
12 49
12 50
13 14
13 16
13 18
13 20
13 21
13 22
13 23
13 24
13 27
13 31
13 34
13 36
13 38
13 39
13 40
13 42
13 47
14 15
14 17
14 19
14 25
14 26
14 28
14 29
14 30
14 32
14 33
14 35
14 37
14 41
14 43
14 44
14 45
14 46
14 48
14 49
14 50
15 16
15 18
15 20
15 21
15 22
15 23
15 24
15 27
15 31
15 34
15 36
15 38
15 39
15 40
15 42
15 47
16 17
16 19
16 25
16 26
16 28
16 29
16 30
16 32
16 33
16 35
16 37
16 41
16 43
16 44
16 45
16 46
16 48
16 49
16 50
17 18
17 20
17 21
17 22
17 23
17 24
17 27
17 31
17 34
17 36
17 38
17 39
17 40
17 42
17 47
18 19
18 25
18 26
18 28
18 29
18 30
18 32
18 33
18 35
18 37
18 41
18 43
18 44
18 45
18 46
18 48
18 49
18 50
19 20
19 21
19 22
19 23
19 24
19 27
19 31
19 34
19 36
19 38
19 39
19 40
19 42
19 47
20 25
20 26
20 28
20 29
20 30
20 32
20 33
20 35
20 37
20 41
20 43
20 44
20 45
20 46
20 48
20 49
20 50
21 25
21 26
21 28
21 29
21 30
21 32
21 33
21 35
21 37
21 41
21 43
21 44
21 45
21 46
21 48
21 49
21 50
22 25
22 26
22 28
22 29
22 30
22 32
22 33
22 35
22 37
22 41
22 43
22 44
22 45
22 46
22 48
22 49
22 50
23 25
23 26
23 28
23 29
23 30
23 32
23 33
23 35
23 37
23 41
23 43
23 44
23 45
23 46
23 48
23 49
23 50
24 25
24 26
24 28
24 29
24 30
24 32
24 33
24 35
24 37
24 41
24 43
24 44
24 45
24 46
24 48
24 49
24 50
25 27
25 31
25 34
25 36
25 38
25 39
25 40
25 42
25 47
26 27
26 31
26 34
26 36
26 38
26 39
26 40
26 42
26 47
27 28
27 29
27 30
27 32
27 33
27 35
27 37
27 41
27 43
27 44
27 45
27 46
27 48
27 49
27 50
28 31
28 34
28 36
28 38
28 39
28 40
28 42
28 47
29 31
29 34
29 36
29 38
29 39
29 40
29 42
29 47
30 31
30 34
30 36
30 38
30 39
30 40
30 42
30 47
31 32
31 33
31 35
31 37
31 41
31 43
31 44
31 45
31 46
31 48
31 49
31 50
32 34
32 36
32 38
32 39
32 40
32 42
32 47
33 34
33 36
33 38
33 39
33 40
33 42
33 47
34 35
34 37
34 41
34 43
34 44
34 45
34 46
34 48
34 49
34 50
35 36
35 38
35 39
35 40
35 42
35 47
36 37
36 41
36 43
36 44
36 45
36 46
36 48
36 49
36 50
37 38
37 39
37 40
37 42
37 47
38 41
38 43
38 44
38 45
38 46
38 48
38 49
38 50
39 41
39 43
39 44
39 45
39 46
39 48
39 49
39 50
40 41
40 43
40 44
40 45
40 46
40 48
40 49
40 50
41 42
41 47
42 43
42 44
42 45
42 46
42 48
42 49
42 50
43 47
44 47
45 47
46 47
47 48
47 49
47 50
